c read Graph
c width = 253
c time = 445 ms
c width = 23
c time = 723 ms
c width = 22
c time = 3909 ms
c width = 21
c time = 6577 ms
c width = 20
c time = 7150 ms
c width = 19
c time = 11358 ms
c width = 18
c time = 15535 ms
c width = 17
c time = 23220 ms
c width = 17
c time = 299832 ms
s td 466 18 546
b 1 44 419
b 2 228 231
b 3 23 404
b 4 81 545
b 5 191 545 546
b 6 85 160 546
b 7 85 120
b 8 80 474
b 9 181 400 472 473
b 10 149 233 234 420
b 11 141 234 235 236
b 12 14 238 239 240
b 13 182 240 241 244
b 14 122 244 245 247
b 15 148 248 249 250
b 16 163 253 254 255
b 17 90 257 258 260
b 18 22 260 261 264
b 19 134 264 265 270
b 20 202 270 271 273
b 21 135 274 275 276
b 22 128 276 277 278
b 23 173 278 279 280
b 24 88 280 281 289
b 25 205 290 291 292
b 26 201 292 293 294
b 27 83 295 296 297
b 28 28 300 301 302
b 29 9 303 304 305
b 30 159 305 306 308
b 31 41 308 309 310
b 32 96 313 314 315
b 33 112 315 316 317
b 34 184 317 318 320
b 35 108 321 322 324
b 36 61 324 325 326
b 37 10 326 327 328
b 38 178 328 329 332
b 39 86 332 333 335
b 40 65 335 336 337
b 41 21 341 342 343
b 42 186 343 344 346
b 43 57 346 347 349
b 44 73 352 353 354
b 45 98 358 359 362
b 46 97 362 363 366
b 47 94 367 368 370
b 48 93 370 371 373
b 49 89 374 375 377
b 50 206 378 379 381
b 51 198 386 387 392
b 52 99 392 393 395
b 53 217 395 396 399
b 54 162 199 406 407
b 55 93 184 477 478
b 56 93 184 478 485
b 57 61 485 486 488
b 58 89 488 489 491
b 59 173 491 492 498
b 60 206 498 499 507
b 61 52 508 509 510
b 62 21 511 512 516
b 63 186 516 517 518
b 64 175 518 519 520
b 65 99 522 523 532
b 66 183 535 536 537
b 67 104 537 538 539
b 68 94 541 542 544
b 69 51 96 312 313 544
b 70 96 312 313 315 544
b 71 96 312 315 317 473 544
b 72 96 112 315 317 473
b 73 104 312 317 399 472 473 544
b 74 104 399 400 472 473
b 75 104 264 270 305 312 317 399 467 472 544
b 76 264 270 305 312 467 469 470 472
b 77 134 264 270 469 470
b 78 305 310 312 467 469 470 472
b 79 305 308 310 467 468 469
b 80 41 308 310 468 469
b 81 159 305 308 467 468
b 82 310 311 312 470 471 472
b 83 1 311 312 471 472
b 84 152 310 311 470 471
b 85 90 104 199 255 264 270 299 305 317 354 362 399 457 467 532 540 544
b 86 90 199 255 264 270 299 305 317 354 362 399 457 467 532 540 544
b 87 90 199 255 270 299 317 354 362 392 399 455 457 467 522 532 540 544
b 88 90 199 253 255 270 299 317 354 362 392 399 455 457 467 522 532 540 544
b 89 90 199 253 270 299 317 354 362 392 455 467 522 532 540 544
b 90 253 255 392 395 399 455 457 522 532
b 91 253 255 395 399 455 456 457
b 92 163 253 255 455 456
b 93 217 395 399 456 457
b 94 99 392 395 522 532
b 95 90 199 219 253 270 295 299 317 350 352 354 362 392 450 455 522 540 544
b 96 219 295 299 350 352 450 451 452 454 455
b 97 219 295 297 299 450 451 452 454
b 98 83 295 297 450 451
b 99 219 297 299 452 453 454
b 100 219 297 298 299 452 453
b 101 8 298 299 452 453
b 102 350 351 352 451 452 454 455
b 103 67 350 351 451 452
b 104 137 351 352 454 455
b 105 90 199 219 253 270 295 317 350 352 354 362 366 392 450 522 540 541 544
b 106 90 199 219 253 270 295 317 350 352 354 366 367 370 392 450 522 541 544
b 107 90 199 219 253 270 295 317 350 352 354 366 367 370 392 412 413 450 522
b 108 90 199 219 253 270 295 317 349 350 352 354 370 392 412 413 450 521 522
b 109 65 90 199 219 253 270 295 317 349 352 354 370 392 412 413 418 450 521
b 110 7 65 90 199 219 253 270 295 317 349 370 392 412 413 416 418 450 521
b 111 7 65 90 199 252 253 270 295 317 349 370 392 412 413 415 416 450 521
b 112 7 65 90 199 251 252 270 295 317 349 370 392 412 413 415 449 450 521
b 113 7 65 90 199 251 270 295 317 346 349 370 392 412 413 415 448 449 521
b 114 7 65 90 199 250 251 270 295 317 346 370 392 412 413 415 448 520 521
b 115 223 250 251 520 521
b 116 7 65 78 86 90 199 250 270 295 317 346 370 392 412 413 415 448 520
b 117 7 65 78 86 90 199 250 270 295 317 335 337 346 370 392 412 448 520
b 118 7 78 86 90 199 250 270 295 317 332 335 337 346 370 392 412 448 520
b 119 7 78 90 199 250 270 294 295 317 332 337 346 370 392 412 448 518 520
b 120 7 78 90 199 250 270 294 317 332 337 341 346 370 392 412 448 511 518
b 121 341 343 346 511 516 518
b 122 21 341 343 511 516
b 123 186 343 346 516 518
b 124 7 78 90 199 250 270 292 294 317 332 337 341 370 392 412 448 510 511
b 125 7 78 90 199 250 270 292 317 332 337 338 341 370 392 412 448 508 510
b 126 7 78 90 162 199 250 270 292 317 332 338 341 370 392 407 412 448 508
b 127 7 78 90 162 250 270 292 317 332 338 341 370 392 407 409 412 448 508
b 128 7 78 90 162 250 270 290 292 317 332 370 392 409 412 448 507 508
b 129 205 290 292 507 508
b 130 7 78 90 162 250 270 290 317 332 370 385 392 409 412 443 446 448 507
b 131 7 78 90 247 250 270 290 317 332 370 385 392 409 412 443 446 448 507
b 132 7 78 90 247 270 289 290 317 332 370 385 409 412 442 443 446 448 507
b 133 7 78 90 247 270 289 317 332 370 381 385 409 412 438 442 446 448 507
b 134 7 78 90 244 247 270 289 317 332 370 381 409 412 437 438 446 448 507
b 135 122 244 247 437 438
b 136 381 384 385 438 441 442
b 137 193 384 385 441 442
b 138 381 383 384 438 440 441
b 139 381 382 383 438 439 440
b 140 126 382 383 438 439
b 141 210 381 382 439 440
b 142 165 383 384 440 441
b 143 18 289 290 442 443
b 144 247 248 250 446 447 448
b 145 144 247 248 446 447
b 146 148 248 250 447 448
b 147 162 385 386 392 443 445 446
b 148 198 386 392 445 446
b 149 162 385 386 443 444 445
b 150 211 385 386 443 444
b 151 162 338 339 341 407 409
b 152 339 340 341 407 408 409
b 153 54 340 341 407 408
b 154 6 339 340 408 409
b 155 52 337 338 508 510
b 156 201 292 294 510 511
b 157 175 294 295 518 520
b 158 78 86 413 414 415
b 159 57 346 349 448 449
b 160 151 251 252 449 450
b 161 19 252 253 415 416
b 162 7 219 416 417 418
b 163 65 73 352 354 418
b 164 13 349 350 521 522
b 165 203 366 367 412 413
b 166 94 367 370 541 544
b 167 97 362 366 540 541
b 168 90 104 117 199 255 264 299 302 305 354 362 457 462 467 532 539 540
b 169 90 117 199 255 256 264 299 302 457 461 462 539 540
b 170 117 199 255 256 299 302 457 460 461
b 171 199 299 300 302 460 461
b 172 28 300 302 460 461
b 173 117 199 255 256 457 459 460
b 174 133 255 256 459 460
b 175 117 199 457 458 459
b 176 90 256 260 264 461 462 539 540
b 177 22 260 264 539 540
b 178 90 256 257 260 461 462
b 179 164 256 257 461 462
b 180 90 104 117 302 305 354 358 362 462 463 467 532 535 539
b 181 117 354 356 358 462 463 532 534 535
b 182 356 357 358 462 463 534 535
b 183 46 357 358 534 535
b 184 213 356 357 462 463
b 185 117 354 356 532 533 534
b 186 117 354 355 356 532 533
b 187 131 354 355 532 533
b 188 90 104 302 305 358 362 463 465 467 535 539
b 189 90 104 302 303 305 463 465 535 539
b 190 90 303 305 463 464 465
b 191 9 303 305 463 464
b 192 104 302 303 535 537 539
b 193 183 302 303 535 537
b 194 104 358 362 465 466 467
b 195 98 358 362 465 466
b 196 7 78 90 244 270 278 289 317 332 370 377 381 409 412 435 437 491 507
b 197 7 78 90 244 270 289 317 332 370 381 409 412 437 448 507
b 198 7 78 90 244 270 289 317 332 370 381 409 412 437 491 507
b 199 278 289 377 381 435 436 437 491 498 507
b 200 377 378 381 436 437 498 507
b 201 206 378 381 498 507
b 202 195 377 378 436 437
b 203 278 280 289 435 436 491 498
b 204 88 280 289 435 436
b 205 173 278 280 491 498
b 206 7 78 90 105 244 270 274 278 317 332 370 377 409 412 424 425 435 491
b 207 90 105 270 274 409 411 412 424 425
b 208 270 273 274 411 412 424 425
b 209 111 273 274 411 412
b 210 202 270 273 424 425
b 211 90 105 409 410 411
b 212 7 78 105 184 244 274 278 317 326 332 370 377 424 425 429 435 491
b 213 7 105 184 238 244 326 332 424 429 431 435
b 214 7 105 184 236 238 424 429 431
b 215 105 184 236 423 424
b 216 7 236 238 429 430 431
b 217 7 236 237 238 429 430
b 218 49 236 237 429 430
b 219 238 240 244 326 332 431 434 435
b 220 238 240 326 328 332 431 433 434
b 221 178 328 332 433 434
b 222 238 240 326 328 431 432 433
b 223 14 238 240 432 433
b 224 10 326 328 431 432
b 225 182 240 244 434 435
b 226 78 105 184 274 278 317 324 326 370 377 425 429 491
b 227 78 184 324 326 370 374 377 485 491
b 228 78 184 370 373 374 485
b 229 93 184 370 373 485
b 230 324 326 374 377 485 488 491
b 231 61 324 326 485 488
b 232 89 374 377 488 491
b 233 78 105 184 274 278 317 324 425 426 429
b 234 105 184 317 321 324 425 426
b 235 108 321 324 425 426
b 236 105 184 317 320 321
b 237 78 274 278 426 428 429
b 238 274 276 278 426 427 428
b 239 128 276 278 427 428
b 240 135 274 276 426 427
b 241 184 234 236 422 423
b 242 141 234 236 422 423
b 243 184 234 420 421 422
b 244 149 234 420 421 422
b 245 185 543 544
b 246 542 543 544
b 247 119 542 543
b 248 169 538 539
b 249 55 536 537
b 250 189 531 532
b 251 523 531 532
b 252 138 530 531
b 253 523 530 531
b 254 31 529 530
b 255 523 529 530
b 256 40 528 529
b 257 523 528 529
b 258 75 527 528
b 259 523 527 528
b 260 100 526 527
b 261 523 526 527
b 262 92 525 526
b 263 523 525 526
b 264 47 524 525
b 265 523 524 525
b 266 95 523 524
b 267 38 519 520
b 268 230 517 518
b 269 70 515 516
b 270 512 515 516
b 271 69 514 515
b 272 512 514 515
b 273 12 513 514
b 274 512 513 514
b 275 136 512 513
b 276 17 509 510
b 277 60 506 507
b 278 499 506 507
b 279 102 505 506
b 280 499 505 506
b 281 84 504 505
b 282 499 504 505
b 283 3 503 504
b 284 499 503 504
b 285 168 502 503
b 286 499 502 503
b 287 216 501 502
b 288 499 501 502
b 289 146 500 501
b 290 499 500 501
b 291 34 499 500
b 292 27 497 498
b 293 492 497 498
b 294 37 496 497
b 295 492 496 497
b 296 62 495 496
b 297 492 495 496
b 298 11 494 495
b 299 492 494 495
b 300 150 493 494
b 301 492 493 494
b 302 156 492 493
b 303 145 490 491
b 304 489 490 491
b 305 5 489 490
b 306 2 487 488
b 307 486 487 488
b 308 121 486 487
b 309 87 484 485
b 310 478 484 485
b 311 158 483 484
b 312 478 483 484
b 313 43 482 483
b 314 478 482 483
b 315 171 481 482
b 316 478 481 482
b 317 32 480 481
b 318 478 480 481
b 319 221 479 480
b 320 478 479 480
b 321 142 478 479
b 322 39 398 399
b 323 396 398 399
b 324 45 397 398
b 325 396 397 398
b 326 82 396 397
b 327 153 394 395
b 328 393 394 395
b 329 130 393 394
b 330 33 391 392
b 331 387 391 392
b 332 116 390 391
b 333 387 390 391
b 334 109 389 390
b 335 387 389 390
b 336 25 388 389
b 337 387 388 389
b 338 177 387 388
b 339 200 380 381
b 340 379 380 381
b 341 71 379 380
b 342 85 376 377
b 343 375 376 377
b 344 101 375 376
b 345 50 372 373
b 346 371 372 373
b 347 16 371 372
b 348 124 369 370
b 349 368 369 370
b 350 196 368 369
b 351 167 365 366
b 352 363 365 366
b 353 36 364 365
b 354 363 364 365
b 355 66 363 364
b 356 224 361 362
b 357 359 361 362
b 358 76 360 361
b 359 359 360 361
b 360 68 359 360
b 361 207 353 354
b 362 118 348 349
b 363 347 348 349
b 364 58 347 348
b 365 218 345 346
b 366 344 345 346
b 367 192 344 345
b 368 161 342 343
b 369 123 336 337
b 370 166 334 335
b 371 333 334 335
b 372 20 333 334
b 373 107 331 332
b 374 329 331 332
b 375 188 330 331
b 376 329 330 331
b 377 209 329 330
b 378 77 327 328
b 379 143 325 326
b 380 53 323 324
b 381 322 323 324
b 382 140 322 323
b 383 215 319 320
b 384 318 319 320
b 385 91 318 319
b 386 157 316 317
b 387 115 314 315
b 388 214 309 310
b 389 59 307 308
b 390 306 307 308
b 391 35 306 307
b 392 212 304 305
b 393 220 301 302
b 394 139 296 297
b 395 110 293 294
b 396 174 291 292
b 397 64 288 289
b 398 281 288 289
b 399 106 287 288
b 400 281 287 288
b 401 170 286 287
b 402 281 286 287
b 403 222 285 286
b 404 281 285 286
b 405 147 284 285
b 406 281 284 285
b 407 30 283 284
b 408 281 283 284
b 409 113 282 283
b 410 281 282 283
b 411 190 281 282
b 412 132 279 280
b 413 155 277 278
b 414 125 275 276
b 415 72 272 273
b 416 271 272 273
b 417 172 271 272
b 418 180 269 270
b 419 265 269 270
b 420 103 268 269
b 421 265 268 269
b 422 194 267 268
b 423 265 267 268
b 424 197 266 267
b 425 265 266 267
b 426 114 265 266
b 427 229 263 264
b 428 261 263 264
b 429 179 262 263
b 430 261 262 263
b 431 4 261 262
b 432 29 259 260
b 433 258 259 260
b 434 26 258 259
b 435 208 254 255
b 436 187 249 250
b 437 127 246 247
b 438 245 246 247
b 439 227 245 246
b 440 74 243 244
b 441 241 243 244
b 442 48 242 243
b 443 241 242 243
b 444 42 241 242
b 445 15 239 240
b 446 24 235 236
b 447 129 233 420
b 448 199 405 406
b 449 226 405 406
b 450 199 404 405
b 451 154 476 477
b 452 184 476 477
b 453 184 475 476
b 454 225 475 476
b 455 184 474 475
b 456 63 402 403
b 457 181 402 403
b 458 176 181 403
b 459 79 401 402
b 460 181 401 402
b 461 181 400 401
b 462 204 400 401
b 463 129 419 420
b 464 56 232 233
b 465 129 232 233
b 466 129 231 232
1 463
2 466
3 450
4 5
5 6
6 7
6 342
8 455
9 461
9 74
10 447
10 244
11 446
11 242
12 445
12 223
13 441
13 225
14 438
14 135
15 436
15 146
16 435
16 92
17 433
17 178
18 428
18 177
19 419
19 77
20 416
20 210
21 414
21 240
22 413
22 239
23 412
23 205
24 398
24 204
25 396
25 129
26 395
26 156
27 394
27 98
28 393
28 172
29 392
29 191
30 390
30 81
31 388
31 80
32 387
32 70
33 386
33 72
34 384
34 236
35 381
35 235
36 379
36 231
37 378
37 224
38 374
38 221
39 371
39 118
40 369
40 117
41 368
41 122
42 366
42 123
43 363
43 159
44 361
44 163
45 357
45 195
46 352
46 167
47 349
47 166
48 346
48 229
49 343
49 232
50 340
50 201
51 331
51 148
52 328
52 94
53 323
53 93
54 448
54 126
55 452
55 56
56 310
56 229
57 307
57 231
58 304
58 232
59 293
59 205
60 278
60 201
61 276
61 155
62 270
62 122
63 268
63 123
64 267
64 157
65 251
65 94
66 249
66 193
67 248
67 192
68 246
68 166
69 70
70 71
71 73
71 72
73 75
73 74
75 85
75 76
76 77
76 78
78 79
78 82
79 80
79 81
82 83
82 84
85 168
85 87
85 86
87 88
88 95
88 90
88 89
90 94
90 91
91 92
91 93
95 105
95 96
96 102
96 97
97 98
97 99
99 100
100 101
102 104
102 103
105 167
105 106
106 166
106 107
107 165
107 108
108 164
108 109
109 163
109 110
110 162
110 111
111 161
111 112
112 160
112 113
113 159
113 114
114 116
114 115
116 158
116 117
117 118
118 119
119 157
119 120
120 124
120 121
121 122
121 123
124 156
124 125
125 155
125 126
126 127
127 151
127 128
128 130
128 129
130 147
130 131
131 144
131 132
132 143
132 133
133 136
133 134
134 197
134 135
136 138
136 137
138 139
138 142
139 140
139 141
144 145
144 146
147 148
147 149
149 150
151 152
152 153
152 154
168 169
168 180
169 170
169 176
170 171
170 173
171 172
173 174
173 175
176 177
176 178
178 179
180 181
180 188
181 185
181 182
182 183
182 184
185 186
186 187
188 189
188 194
189 190
189 192
190 191
192 193
194 195
196 206
196 199
196 198
197 198
199 200
199 203
200 201
200 202
203 205
203 204
206 207
206 212
207 211
207 208
208 209
208 210
212 213
212 226
213 214
213 219
214 215
214 216
215 241
216 217
217 218
219 220
219 225
220 221
220 222
222 224
222 223
226 227
226 233
227 230
227 228
228 229
230 231
230 232
233 234
233 237
234 235
234 236
237 238
238 239
238 240
241 243
241 242
243 244
245 246
246 247
250 251
251 253
252 253
253 255
254 255
255 257
256 257
257 259
258 259
259 261
260 261
261 263
262 263
263 265
264 265
265 266
269 270
270 272
271 272
272 274
273 274
274 275
277 278
278 280
279 280
280 282
281 282
282 284
283 284
284 286
285 286
286 288
287 288
288 290
289 290
290 291
292 293
293 295
294 295
295 297
296 297
297 299
298 299
299 301
300 301
301 302
303 304
304 305
306 307
307 308
309 310
310 312
311 312
312 314
313 314
314 316
315 316
316 318
317 318
318 320
319 320
320 321
322 323
323 325
324 325
325 326
327 328
328 329
330 331
331 333
332 333
333 335
334 335
335 337
336 337
337 338
339 340
340 341
342 343
343 344
345 346
346 347
348 349
349 350
351 352
352 354
353 354
354 355
356 357
357 359
358 359
359 360
362 363
363 364
365 366
366 367
370 371
371 372
373 374
374 376
375 376
376 377
380 381
381 382
383 384
384 385
389 390
390 391
397 398
398 400
399 400
400 402
401 402
402 404
403 404
404 406
405 406
406 408
407 408
408 410
409 410
410 411
415 416
416 417
418 419
419 421
420 421
421 423
422 423
423 425
424 425
425 426
427 428
428 430
429 430
430 431
432 433
433 434
437 438
438 439
440 441
441 443
442 443
443 444
447 465
447 463
448 450
448 449
451 452
452 453
453 455
453 454
456 457
457 460
457 458
459 460
460 461
461 462
464 465
465 466
